1111100 AB
306 338 370 401 422 443 464 485 506 528 550 572 594 616 638 660 682 703 724 745 766 787 808 830 856 882 909 936 962 984 1003 1022 1041 1060 1080 1100 1121 1142 1163 1184 1210 1236 1274 1312 1351 1387 1424
1111100 BA
344 362 394 428 449 467 480 491 512 533 552 571 592 614 636 658 680 702 724 746 767 788 809 830 851 872 894 924 951 979 1006 1032 1054 1073 1092 1111 1130 1149 1166 1186 1205 1226 1247 1271 1294 1330 1368 1407 3
0000011 AB
306 344 382 420 461 501 541 571 601 631 661 691 720 749 778 799 820 842 874 906 938 970 1000 1030 1060 1090 1119 1148 1178 1216 1255 1318 1381 3
0000011 BA
362 400 439 480 521 561 601 631 661 691 721 751 780 809 838 859 880 902 934 966 998 1030 1060 1090 1120 1150 1178 1206 1236 1273 1311 1374 1437
